Crypto/instances/samples/hf_n23/hf_n23_cnf04.sol
c DPLL-like Solver for max-min SAT
f file hf_n23_cnf04.cnf
p cnf 23 95
s max  95 -14 15 -16 -13 -19 11 -9 -12 10 -2 1 3 -4 -20 -23 -6 5 8 -7 -22 -18 -17 -21
s min  78 14 -15 -16 -13 19 11 9 12 -10 -2 -1 -3 4 20 -23 -6 5 -8 7 -22 -18 -17 21